p edge 177
e 0 12
e 0 112
e 1 17
e 1 24
e 1 68
e 1 136
e 1 138
e 1 144
e 2 15
e 2 16
e 2 21
e 2 23
e 2 66
e 2 69
e 3 14
e 3 16
e 3 137
e 3 143
e 4 24
e 4 29
e 4 52
e 4 53
e 4 62
e 4 66
e 4 69
e 4 109
e 4 172
e 5 15
e 5 17
e 5 23
e 5 68
e 5 138
e 6 7
e 6 93
e 6 94
e 6 98
e 6 99
e 7 94
e 7 99
e 7 100
e 8 48
e 8 56
e 8 156
e 8 158
e 9 35
e 9 45
e 9 158
e 10 45
e 10 46
e 10 50
e 10 51
e 10 56
e 10 62
e 11 27
e 11 83
e 11 113
e 11 132
e 12 13
e 12 74
e 12 111
e 12 112
e 12 173
e 12 174
e 12 175
e 13 111
e 14 16
e 14 27
e 14 77
e 14 94
e 14 101
e 14 109
e 14 113
e 14 131
e 14 135
e 14 137
e 15 23
e 15 69
e 15 138
e 15 144
e 16 21
e 16 23
e 16 109
e 16 143
e 17 23
e 17 68
e 17 136
e 17 143
e 18 105
e 18 106
e 19 20
e 19 114
e 19 131
e 19 134
e 19 151
e 21 66
e 21 109
e 22 67
e 22 136
e 22 141
e 22 143
e 23 143
e 24 39
e 24 47
e 24 62
e 24 69
e 24 136
e 24 141
e 24 144
e 25 104
e 25 121
e 25 123
e 25 142
e 26 27
e 26 28
e 26 47
e 26 51
e 26 97
e 26 103
e 26 137
e 27 28
e 27 113
e 27 115
e 27 137
e 28 115
e 29 43
e 29 52
e 29 55
e 29 162
e 29 166
e 29 168
e 29 172
e 30 37
e 30 53
e 30 62
e 30 165
e 31 32
e 31 38
e 31 40
e 31 53
e 31 61
e 32 154
e 32 159
e 32 164
e 33 38
e 33 44
e 33 154
e 33 167
e 34 56
e 34 62
e 34 160
e 34 165
e 35 36
e 35 45
e 35 57
e 35 59
e 35 64
e 35 155
e 35 158
e 35 169
e 36 52
e 36 57
e 36 59
e 36 64
e 36 65
e 36 101
e 37 40
e 37 53
e 37 164
e 37 165
e 38 44
e 38 60
e 38 61
e 38 154
e 39 41
e 39 42
e 39 47
e 39 58
e 39 62
e 39 110
e 40 53
e 40 164
e 41 54
e 41 58
e 41 110
e 42 47
e 42 51
e 42 54
e 42 58
e 42 62
e 42 110
e 43 44
e 43 49
e 43 55
e 43 63
e 43 172
e 44 49
e 44 60
e 44 63
e 45 48
e 45 50
e 45 56
e 45 59
e 45 171
e 46 50
e 46 51
e 46 59
e 46 97
e 47 51
e 47 137
e 47 141
e 48 56
e 48 158
e 49 60
e 49 172
e 50 59
e 50 171
e 51 62
e 51 97
e 52 65
e 52 101
e 52 109
e 52 153
e 52 163
e 52 166
e 53 60
e 53 61
e 53 62
e 53 172
e 54 58
e 54 110
e 55 63
e 55 157
e 55 161
e 55 167
e 56 62
e 56 156
e 56 159
e 56 160
e 57 59
e 59 97
e 59 101
e 59 171
e 60 61
e 60 172
e 62 110
e 62 165
e 63 167
e 64 65
e 64 153
e 64 169
e 65 153
e 66 69
e 66 109
e 67 136
e 67 143
e 68 138
e 69 144
e 70 71
e 71 72
e 71 132
e 71 133
e 71 151
e 73 95
e 73 96
e 73 102
e 74 75
e 74 175
e 75 104
e 75 175
e 76 78
e 77 78
e 77 94
e 77 105
e 77 114
e 77 117
e 77 131
e 78 114
e 78 117
e 79 80
e 79 81
e 79 85
e 79 88
e 79 108
e 80 88
e 80 91
e 80 108
e 81 84
e 81 85
e 81 87
e 81 108
e 82 86
e 82 88
e 82 91
e 82 92
e 83 89
e 83 108
e 83 113
e 83 124
e 83 125
e 83 126
e 83 132
e 84 85
e 84 86
e 84 87
e 84 90
e 84 92
e 84 126
e 84 129
e 85 86
e 85 88
e 86 92
e 87 108
e 87 126
e 87 130
e 88 91
e 89 108
e 89 125
e 89 127
e 89 128
e 90 91
e 90 92
e 90 108
e 90 129
e 91 92
e 91 108
e 93 94
e 93 95
e 93 96
e 93 98
e 93 102
e 94 100
e 94 101
e 94 102
e 94 105
e 94 145
e 95 96
e 95 102
e 96 98
e 96 102
e 97 98
e 97 101
e 97 103
e 98 99
e 98 101
e 98 102
e 98 103
e 99 100
e 99 101
e 100 101
e 101 109
e 102 103
e 104 115
e 104 120
e 104 121
e 104 123
e 104 140
e 104 175
e 105 117
e 105 145
e 105 150
e 106 107
e 108 113
e 108 127
e 108 129
e 108 130
e 108 133
e 108 135
e 111 112
e 113 135
e 114 131
e 116 117
e 117 150
e 118 119
e 118 120
e 118 121
e 118 122
e 119 120
e 119 121
e 119 122
e 119 123
e 120 121
e 120 123
e 121 122
e 121 123
e 124 125
e 124 126
e 125 126
e 125 127
e 125 128
e 125 130
e 126 129
e 126 130
e 126 132
e 126 133
e 127 128
e 127 130
e 129 133
e 131 133
e 131 134
e 131 135
e 132 133
e 133 134
e 133 135
e 133 151
e 134 151
e 136 141
e 136 143
e 137 141
e 137 143
e 138 144
e 139 140
e 140 175
e 141 143
e 145 146
e 145 147
e 145 148
e 145 149
e 146 147
e 146 149
e 147 148
e 147 149
e 151 152
e 153 163
e 153 169
e 154 159
e 154 167
e 155 157
e 155 158
e 155 169
e 155 170
e 156 159
e 156 167
e 156 170
e 157 161
e 157 163
e 157 167
e 157 169
e 157 170
e 158 170
e 159 160
e 159 167
e 160 164
e 161 162
e 161 163
e 162 163
e 162 168
e 163 166
e 163 168
e 163 169
e 164 165
e 166 168
e 167 170
e 174 175
e 175 176
c k 1
